Route #1: 20 29 30 21 22 26 23 24 25 28 27 42 43 44 46 53 45 52 48 47 50 70 49 51 41 55 54
Route #2: 32 31 34 56 57 39 68 40 38 37 69 67 66 65 62 64 63 59 58 61 60 14 18
Route #3: 11 1
Route #4: 36 35 33 19 15 2 17 16 13 12 71 6 10 8 7 9 4 3 5
Cost 245